Ag18 Sb6 S18
1.0
  10.8722569100000008    0.0000000000000000    0.0000000000000007
  -5.4361284549999995    9.4156506805309039    0.0000000000000007
   0.0000000000000000    0.0000000000000000    9.3376910399999993
Ag Sb S
18 6 18
direct
   0.7502594400000000    0.7124293800000000    0.2979550100000000 Ag+
   0.9621699400000000    0.2497405600000000    0.2979550100000000 Ag+
   0.2955032700000000    0.3790960500000000    0.4646216800000000 Ag+
   0.6209039500000000    0.9164072300000000    0.4646216800000000 Ag+
   0.2875706200000000    0.0378300600000000    0.2979550100000000 Ag+
   0.0835927700000000    0.7044967300000000    0.4646216800000000 Ag+
   0.4169261100000000    0.0457627100000000    0.6312883400000000 Ag+
   0.6288366100000000    0.5830738900000000    0.6312883400000000 Ag+
   0.9621699400000000    0.7124293800000000    0.7979550100000000 Ag+
   0.2875706200000000    0.2497405600000000    0.7979550100000000 Ag+
   0.9542372900000000    0.3711633900000000    0.6312883400000000 Ag+
   0.7502594400000000    0.0378300600000000    0.7979550100000000 Ag+
   0.0835927700000000    0.3790960500000000    0.9646216800000000 Ag+
   0.2955032700000000    0.9164072300000000    0.9646216800000000 Ag+
   0.6288366100000000    0.0457627100000000    0.1312883400000000 Ag+
   0.9542372900000000    0.5830738900000000    0.1312883400000000 Ag+
   0.6209039500000000    0.7044967300000000    0.9646216800000000 Ag+
   0.4169261100000000    0.3711633900000000    0.1312883400000000 Ag+
   0.0000000000000000    0.0000000000000000    0.4936504300000000 Sb3+
   0.0000000000000000    0.0000000000000000    0.9936504300000000 Sb3+
   0.6666666666666666    0.3333333333333333    0.8269837600000000 Sb3+
   0.6666666666666666    0.3333333333333333    0.3269837600000000 Sb3+
   0.3333333333333333    0.6666666666666666    0.1603171000000000 Sb3+
   0.3333333333333333    0.6666666666666666    0.6603171000000000 Sb3+
   0.7868479000000000    0.5597684100000000    0.4621948500000000 S2-
   0.4402315900000000    0.2270795000000000    0.4621948500000000 S2-
   0.1201812400000000    0.8937461600000000    0.6288615100000000 S2-
   0.1062538400000000    0.2264350700000000    0.6288615100000000 S2-
   0.7729205000000000    0.2131521000000000    0.4621948500000000 S2-
   0.7735649300000000    0.8798187600000000    0.6288615100000000 S2-
   0.4535145700000000    0.8931017400000000    0.7955281800000000 S2-
   0.1068982600000000    0.5604128300000000    0.7955281800000000 S2-
   0.7868479000000000    0.2270795000000000    0.9621948500000000 S2-
   0.7729205000000000    0.5597684100000000    0.9621948500000000 S2-
   0.4395871700000000    0.5464854300000000    0.7955281800000000 S2-
   0.4402315900000000    0.2131521000000000    0.9621948500000000 S2-
   0.1201812400000000    0.2264350700000000    0.1288615100000000 S2-
   0.7735649300000000    0.8937461600000000    0.1288615100000000 S2-
   0.4535145700000000    0.5604128300000000    0.2955281800000000 S2-
   0.4395871700000000    0.8931017400000000    0.2955281800000000 S2-
   0.1062538400000000    0.8798187600000000    0.1288615100000000 S2-
   0.1068982600000000    0.5464854300000000    0.2955281800000000 S2-
